ttice:
10.0
  0.1647     -0.28526877  0.
  0.1647     0.28526877 0.
  0.         0.         0.53790795
Mg
2
Direct
  0.33333333 0.66666667 0.25
  0.66666667 0.33333333 0.75

